
Gurobi 7.0.2 (mac64, Python) logging started Fri Aug 31 14:50:09 2018


Gurobi 7.0.2 (mac64, Python) logging started Fri Aug 31 14:50:22 2018


Gurobi 7.0.2 (mac64, Python) logging started Fri Aug 31 14:50:52 2018


Gurobi 7.0.2 (mac64, Python) logging started Fri Aug 31 14:52:03 2018


Gurobi 7.0.2 (mac64, Python) logging started Fri Aug 31 14:52:18 2018


Gurobi 7.0.2 (mac64, Python) logging started Fri Aug 31 14:53:23 2018


Gurobi 7.0.2 (mac64, Python) logging started Fri Aug 31 14:53:40 2018


Gurobi 7.0.2 (mac64, Python) logging started Fri Aug 31 15:01:37 2018


Gurobi 7.0.2 (mac64, Python) logging started Fri Aug 31 15:01:55 2018


Gurobi 7.0.2 (mac64, Python) logging started Fri Aug 31 15:02:21 2018


Gurobi 7.0.2 (mac64, Python) logging started Fri Aug 31 15:03:50 2018


Gurobi 7.0.2 (mac64, Python) logging started Fri Aug 31 15:04:10 2018


Gurobi 7.0.2 (mac64, Python) logging started Fri Aug 31 15:04:35 2018


Gurobi 7.0.2 (mac64, Python) logging started Fri Aug 31 15:06:42 2018


Gurobi 7.0.2 (mac64, Python) logging started Fri Aug 31 15:07:48 2018


Gurobi 7.0.2 (mac64, Python) logging started Fri Aug 31 15:08:43 2018


Gurobi 7.0.2 (mac64, Python) logging started Fri Aug 31 15:09:21 2018


Gurobi 7.0.2 (mac64, Python) logging started Fri Aug 31 18:03:52 2018


Gurobi 7.0.2 (mac64, Python) logging started Fri Aug 31 18:04:19 2018


Gurobi 7.0.2 (mac64, Python) logging started Fri Aug 31 18:04:47 2018


Gurobi 7.0.2 (mac64, Python) logging started Fri Aug 31 18:05:42 2018


Gurobi 7.0.2 (mac64, Python) logging started Fri Aug 31 18:05:57 2018


Gurobi 7.0.2 (mac64, Python) logging started Fri Aug 31 18:06:24 2018


Gurobi 7.0.2 (mac64, Python) logging started Fri Aug 31 18:08:31 2018


Gurobi 7.0.2 (mac64, Python) logging started Fri Aug 31 18:10:33 2018


Gurobi 7.0.2 (mac64, Python) logging started Fri Aug 31 18:14:42 2018


Gurobi 7.0.2 (mac64, Python) logging started Fri Aug 31 18:22:54 2018


Gurobi 7.0.2 (mac64, Python) logging started Thu Sep  6 22:03:36 2018


Gurobi 7.0.2 (mac64, Python) logging started Thu Sep  6 22:04:42 2018


Gurobi 7.0.2 (mac64, Python) logging started Thu Sep  6 22:07:14 2018


Gurobi 7.0.2 (mac64, Python) logging started Thu Sep  6 22:08:13 2018


Gurobi 7.0.2 (mac64, Python) logging started Thu Sep  6 22:09:14 2018


Gurobi 7.0.2 (mac64, Python) logging started Thu Sep  6 22:10:43 2018


Gurobi 7.0.2 (mac64, Python) logging started Thu Sep  6 22:11:02 2018


Gurobi 7.0.2 (mac64, Python) logging started Thu Sep  6 22:11:21 2018


Gurobi 7.0.2 (mac64, Python) logging started Thu Sep  6 23:06:15 2018


Gurobi 7.0.2 (mac64, Python) logging started Sat Sep  8 11:54:14 2018


Gurobi 7.0.2 (mac64, Python) logging started Sat Sep  8 11:56:03 2018


Gurobi 7.0.2 (mac64, Python) logging started Sat Sep  8 11:58:29 2018


Gurobi 7.0.2 (mac64, Python) logging started Sat Sep  8 11:58:58 2018


Gurobi 7.0.2 (mac64, Python) logging started Sat Sep  8 18:18:56 2018


Gurobi 7.0.2 (mac64, Python) logging started Sat Sep  8 18:19:25 2018


Gurobi 7.0.2 (mac64, Python) logging started Sat Sep  8 18:20:04 2018


Gurobi 7.0.2 (mac64, Python) logging started Sat Sep  8 18:24:52 2018


Gurobi 7.0.2 (mac64, Python) logging started Sat Sep  8 18:25:25 2018


Gurobi 7.0.2 (mac64, Python) logging started Sat Sep  8 18:27:36 2018


Gurobi 7.0.2 (mac64, Python) logging started Sat Sep  8 18:28:24 2018


Gurobi 7.0.2 (mac64, Python) logging started Sat Sep  8 18:29:42 2018


Gurobi 7.0.2 (mac64, Python) logging started Sat Sep  8 18:47:18 2018


Gurobi 7.0.2 (mac64, Python) logging started Sat Sep  8 18:48:28 2018


Gurobi 7.0.2 (mac64, Python) logging started Sat Sep  8 18:48:54 2018


Gurobi 7.0.2 (mac64, Python) logging started Sat Sep  8 18:49:47 2018


Gurobi 7.0.2 (mac64, Python) logging started Sat Sep  8 18:50:04 2018


Gurobi 7.0.2 (mac64, Python) logging started Sat Sep  8 18:52:35 2018


Gurobi 7.0.2 (mac64, Python) logging started Sat Sep  8 18:52:50 2018


Gurobi 7.0.2 (mac64, Python) logging started Sat Sep  8 20:03:30 2018


Gurobi 7.0.2 (mac64, Python) logging started Sat Sep  8 20:03:53 2018


Gurobi 7.0.2 (mac64, Python) logging started Sat Sep  8 20:04:25 2018


Gurobi 7.0.2 (mac64, Python) logging started Sat Sep  8 23:30:12 2018


Gurobi 7.0.2 (mac64, Python) logging started Sun Sep  9 18:16:54 2018


Gurobi 7.0.2 (mac64, Python) logging started Sun Sep  9 18:42:56 2018


Gurobi 7.0.2 (mac64, Python) logging started Sun Sep  9 18:43:55 2018


Gurobi 7.0.2 (mac64, Python) logging started Sun Sep  9 18:44:37 2018


Gurobi 7.0.2 (mac64, Python) logging started Sun Sep  9 18:45:09 2018


Gurobi 7.0.2 (mac64, Python) logging started Sun Sep  9 18:46:19 2018


Gurobi 7.0.2 (mac64, Python) logging started Sun Sep  9 18:47:02 2018


Gurobi 7.0.2 (mac64, Python) logging started Sun Sep  9 18:52:30 2018


Gurobi 7.0.2 (mac64, Python) logging started Sun Sep 16 17:37:01 2018


Gurobi 7.0.2 (mac64, Python) logging started Sun Sep 16 17:42:10 2018


Gurobi 7.0.2 (mac64, Python) logging started Sun Sep 16 17:42:55 2018


Gurobi 7.0.2 (mac64, Python) logging started Sun Sep 16 17:43:15 2018


Gurobi 7.0.2 (mac64, Python) logging started Sun Sep 16 17:44:17 2018


Gurobi 7.0.2 (mac64, Python) logging started Sun Sep 16 17:45:12 2018


Gurobi 7.0.2 (mac64, Python) logging started Sun Sep 16 17:45:36 2018


Gurobi 7.0.2 (mac64, Python) logging started Sun Sep 16 17:45:56 2018


Gurobi 7.0.2 (mac64, Python) logging started Sun Sep 16 17:47:42 2018


Gurobi 7.0.2 (mac64, Python) logging started Sun Sep 16 17:48:08 2018


Gurobi 7.0.2 (mac64, Python) logging started Sun Sep 16 17:48:56 2018


Gurobi 7.0.2 (mac64, Python) logging started Sun Sep 16 17:49:54 2018


Gurobi 7.0.2 (mac64, Python) logging started Sun Sep 16 17:50:35 2018


Gurobi 7.0.2 (mac64, Python) logging started Sun Sep 16 17:51:13 2018


Gurobi 7.0.2 (mac64, Python) logging started Sun Sep 16 17:55:30 2018


Gurobi 7.0.2 (mac64, Python) logging started Sun Sep 16 17:57:51 2018


Gurobi 7.0.2 (mac64, Python) logging started Sun Sep 16 17:58:06 2018


Gurobi 7.0.2 (mac64, Python) logging started Sun Sep 16 17:58:42 2018


Gurobi 7.0.2 (mac64, Python) logging started Sun Sep 16 17:59:33 2018


Gurobi 7.0.2 (mac64, Python) logging started Sun Sep 16 18:00:02 2018


Gurobi 7.0.2 (mac64, Python) logging started Sun Sep 16 18:32:16 2018


Gurobi 7.0.2 (mac64, Python) logging started Sun Sep 16 18:43:51 2018


Gurobi 7.0.2 (mac64, Python) logging started Sun Sep 16 18:44:19 2018


Gurobi 7.0.2 (mac64, Python) logging started Sun Sep 16 18:44:53 2018


Gurobi 7.0.2 (mac64, Python) logging started Sun Sep 16 18:45:58 2018


Gurobi 7.0.2 (mac64, Python) logging started Sun Sep 16 18:46:31 2018


Gurobi 7.0.2 (mac64, Python) logging started Sun Sep 16 18:47:26 2018


Gurobi 7.0.2 (mac64, Python) logging started Sun Sep 16 18:47:42 2018


Gurobi 7.0.2 (mac64, Python) logging started Sun Sep 16 18:48:04 2018


Gurobi 7.0.2 (mac64, Python) logging started Sun Sep 16 18:48:32 2018


Gurobi 7.0.2 (mac64, Python) logging started Sun Sep 16 18:50:29 2018


Gurobi 7.0.2 (mac64, Python) logging started Sun Sep 16 18:51:41 2018


Gurobi 7.0.2 (mac64, Python) logging started Sun Sep 16 18:54:00 2018


Gurobi 7.0.2 (mac64, Python) logging started Sun Sep 16 18:56:49 2018


Gurobi 7.0.2 (mac64, Python) logging started Sun Sep 16 18:58:30 2018


Gurobi 7.0.2 (mac64, Python) logging started Sun Sep 16 19:00:10 2018


Gurobi 7.0.2 (mac64, Python) logging started Sun Sep 16 19:01:59 2018


Gurobi 7.0.2 (mac64, Python) logging started Sun Sep 16 19:03:46 2018


Gurobi 7.0.2 (mac64, Python) logging started Sun Sep 16 19:07:02 2018


Gurobi 7.0.2 (mac64, Python) logging started Sun Sep 16 19:07:22 2018


Gurobi 7.0.2 (mac64, Python) logging started Sun Sep 16 19:09:21 2018


Gurobi 7.0.2 (mac64, Python) logging started Sun Sep 16 19:09:47 2018


Gurobi 7.0.2 (mac64, Python) logging started Sun Sep 16 19:12:50 2018


Gurobi 7.0.2 (mac64, Python) logging started Sun Sep 16 19:13:24 2018


Gurobi 7.0.2 (mac64, Python) logging started Sun Sep 16 19:13:53 2018


Gurobi 7.0.2 (mac64, Python) logging started Sun Sep 16 19:15:27 2018


Gurobi 7.0.2 (mac64, Python) logging started Sun Sep 16 19:15:45 2018


Gurobi 7.0.2 (mac64, Python) logging started Sun Sep 16 19:18:09 2018


Gurobi 7.0.2 (mac64, Python) logging started Sun Sep 16 19:20:29 2018


Gurobi 7.0.2 (mac64, Python) logging started Sun Sep 16 19:23:39 2018


Gurobi 7.0.2 (mac64, Python) logging started Sun Sep 16 19:24:39 2018


Gurobi 7.0.2 (mac64, Python) logging started Sun Sep 16 19:26:44 2018


Gurobi 7.0.2 (mac64, Python) logging started Fri Sep 21 19:21:51 2018


Gurobi 7.0.2 (mac64, Python) logging started Fri Sep 21 19:24:10 2018


Gurobi 7.0.2 (mac64, Python) logging started Fri Sep 21 19:24:37 2018


Gurobi 7.0.2 (mac64, Python) logging started Fri Sep 21 19:25:41 2018


Gurobi 7.0.2 (mac64, Python) logging started Fri Sep 21 19:29:04 2018


Gurobi 7.0.2 (mac64, Python) logging started Fri Sep 21 19:29:34 2018


Gurobi 7.0.2 (mac64, Python) logging started Fri Sep 21 19:29:51 2018


Gurobi 7.0.2 (mac64, Python) logging started Fri Sep 21 19:30:16 2018


Gurobi 7.0.2 (mac64, Python) logging started Fri Sep 21 19:32:24 2018


Gurobi 7.0.2 (mac64, Python) logging started Fri Sep 21 19:51:30 2018


Gurobi 7.0.2 (mac64, Python) logging started Fri Sep 21 19:52:28 2018


Gurobi 7.0.2 (mac64, Python) logging started Fri Sep 21 19:53:09 2018


Gurobi 7.0.2 (mac64, Python) logging started Fri Sep 21 19:53:22 2018


Gurobi 7.0.2 (mac64, Python) logging started Fri Sep 21 19:53:56 2018


Gurobi 7.0.2 (mac64, Python) logging started Fri Sep 21 19:54:12 2018


Gurobi 7.0.2 (mac64, Python) logging started Fri Sep 21 19:54:23 2018


Gurobi 7.0.2 (mac64, Python) logging started Fri Sep 21 19:55:52 2018


Gurobi 7.0.2 (mac64, Python) logging started Fri Sep 21 19:56:54 2018


Gurobi 7.0.2 (mac64, Python) logging started Fri Sep 21 19:57:04 2018


Gurobi 7.0.2 (mac64, Python) logging started Fri Sep 21 19:57:53 2018


Gurobi 7.0.2 (mac64, Python) logging started Fri Sep 21 19:58:03 2018


Gurobi 7.0.2 (mac64, Python) logging started Fri Sep 21 19:58:33 2018


Gurobi 7.0.2 (mac64, Python) logging started Fri Sep 21 19:59:10 2018


Gurobi 7.0.2 (mac64, Python) logging started Fri Sep 21 20:00:42 2018


Gurobi 7.0.2 (mac64, Python) logging started Fri Sep 21 20:01:27 2018


Gurobi 7.0.2 (mac64, Python) logging started Fri Sep 21 20:02:11 2018


Gurobi 7.0.2 (mac64, Python) logging started Fri Sep 21 20:03:12 2018


Gurobi 7.0.2 (mac64, Python) logging started Fri Sep 21 20:03:26 2018


Gurobi 7.0.2 (mac64, Python) logging started Fri Sep 21 20:04:02 2018


Gurobi 7.0.2 (mac64, Python) logging started Fri Sep 21 20:04:18 2018


Gurobi 7.0.2 (mac64, Python) logging started Fri Sep 21 20:04:36 2018


Gurobi 7.0.2 (mac64, Python) logging started Fri Sep 21 20:05:12 2018


Gurobi 7.0.2 (mac64, Python) logging started Fri Sep 21 20:05:30 2018


Gurobi 7.0.2 (mac64, Python) logging started Fri Sep 21 20:05:39 2018


Gurobi 7.0.2 (mac64, Python) logging started Fri Sep 21 20:05:43 2018


Gurobi 7.0.2 (mac64, Python) logging started Fri Sep 21 20:05:50 2018


Gurobi 7.0.2 (mac64, Python) logging started Fri Sep 21 20:09:13 2018


Gurobi 7.0.2 (mac64, Python) logging started Fri Sep 21 20:09:25 2018


Gurobi 7.0.2 (mac64, Python) logging started Fri Sep 21 20:09:44 2018


Gurobi 7.0.2 (mac64, Python) logging started Fri Sep 21 20:10:15 2018


Gurobi 7.0.2 (mac64, Python) logging started Fri Sep 21 20:11:13 2018


Gurobi 7.0.2 (mac64, Python) logging started Fri Sep 21 20:14:14 2018


Gurobi 7.0.2 (mac64, Python) logging started Fri Sep 21 20:15:43 2018


Gurobi 7.0.2 (mac64, Python) logging started Fri Sep 21 20:19:37 2018


Gurobi 7.0.2 (mac64, Python) logging started Fri Sep 21 20:20:19 2018


Gurobi 7.0.2 (mac64, Python) logging started Fri Sep 21 20:21:22 2018


Gurobi 7.0.2 (mac64, Python) logging started Fri Sep 21 20:29:58 2018


Gurobi 7.0.2 (mac64, Python) logging started Fri Sep 21 20:41:15 2018


Gurobi 7.0.2 (mac64, Python) logging started Fri Sep 21 20:41:28 2018


Gurobi 7.0.2 (mac64, Python) logging started Fri Sep 21 20:42:08 2018


Gurobi 7.0.2 (mac64, Python) logging started Fri Sep 21 20:43:04 2018


Gurobi 7.0.2 (mac64, Python) logging started Fri Sep 21 20:43:24 2018


Gurobi 7.0.2 (mac64, Python) logging started Fri Sep 21 20:43:33 2018


Gurobi 7.0.2 (mac64, Python) logging started Fri Sep 21 20:43:43 2018


Gurobi 7.0.2 (mac64, Python) logging started Mon Sep 24 21:06:42 2018


Gurobi 7.0.2 (mac64, Python) logging started Mon Sep 24 21:08:27 2018


Gurobi 7.0.2 (mac64, Python) logging started Mon Sep 24 21:10:50 2018


Gurobi 7.0.2 (mac64, Python) logging started Mon Sep 24 21:11:28 2018


Gurobi 7.0.2 (mac64, Python) logging started Mon Sep 24 21:12:13 2018


Gurobi 7.0.2 (mac64, Python) logging started Mon Sep 24 21:12:30 2018


Gurobi 7.0.2 (mac64, Python) logging started Mon Sep 24 21:12:42 2018


Gurobi 7.0.2 (mac64, Python) logging started Mon Sep 24 21:12:57 2018


Gurobi 7.0.2 (mac64, Python) logging started Mon Sep 24 21:14:04 2018


Gurobi 7.0.2 (mac64, Python) logging started Mon Sep 24 21:14:41 2018


Gurobi 7.0.2 (mac64, Python) logging started Mon Sep 24 21:14:55 2018


Gurobi 7.0.2 (mac64, Python) logging started Mon Sep 24 21:16:08 2018


Gurobi 7.0.2 (mac64, Python) logging started Mon Sep 24 21:16:33 2018


Gurobi 7.0.2 (mac64, Python) logging started Mon Sep 24 21:17:02 2018


Gurobi 7.0.2 (mac64, Python) logging started Mon Sep 24 21:17:15 2018


Gurobi 7.0.2 (mac64, Python) logging started Mon Sep 24 21:17:48 2018


Gurobi 7.0.2 (mac64, Python) logging started Mon Sep 24 21:18:14 2018


Gurobi 7.0.2 (mac64, Python) logging started Mon Sep 24 21:18:33 2018


Gurobi 7.0.2 (mac64, Python) logging started Mon Sep 24 21:18:50 2018


Gurobi 7.0.2 (mac64, Python) logging started Mon Sep 24 21:19:20 2018


Gurobi 7.0.2 (mac64, Python) logging started Mon Sep 24 21:19:59 2018


Gurobi 7.0.2 (mac64, Python) logging started Mon Sep 24 21:20:14 2018


Gurobi 7.0.2 (mac64, Python) logging started Mon Sep 24 21:20:33 2018


Gurobi 7.0.2 (mac64, Python) logging started Mon Sep 24 21:21:29 2018


Gurobi 7.0.2 (mac64, Python) logging started Mon Sep 24 21:21:57 2018


Gurobi 7.0.2 (mac64, Python) logging started Mon Sep 24 21:22:10 2018


Gurobi 7.0.2 (mac64, Python) logging started Mon Sep 24 21:24:16 2018


Gurobi 7.0.2 (mac64, Python) logging started Mon Sep 24 21:26:42 2018


Gurobi 7.0.2 (mac64, Python) logging started Mon Sep 24 21:29:56 2018


Gurobi 7.0.2 (mac64, Python) logging started Mon Sep 24 21:32:09 2018


Gurobi 7.0.2 (mac64, Python) logging started Mon Sep 24 21:32:53 2018


Gurobi 7.0.2 (mac64, Python) logging started Mon Sep 24 21:33:28 2018


Gurobi 7.0.2 (mac64, Python) logging started Mon Sep 24 21:35:05 2018


Gurobi 7.0.2 (mac64, Python) logging started Mon Sep 24 21:35:24 2018


Gurobi 7.0.2 (mac64, Python) logging started Mon Sep 24 21:36:05 2018


Gurobi 7.0.2 (mac64, Python) logging started Mon Sep 24 21:41:52 2018


Gurobi 7.0.2 (mac64, Python) logging started Mon Sep 24 21:46:40 2018


Gurobi 7.0.2 (mac64, Python) logging started Mon Sep 24 21:49:45 2018


Gurobi 7.0.2 (mac64, Python) logging started Mon Sep 24 21:50:14 2018


Gurobi 7.0.2 (mac64, Python) logging started Mon Sep 24 21:53:19 2018


Gurobi 7.0.2 (mac64, Python) logging started Mon Sep 24 21:55:05 2018


Gurobi 7.0.2 (mac64, Python) logging started Mon Sep 24 21:55:37 2018


Gurobi 7.0.2 (mac64, Python) logging started Mon Sep 24 21:56:04 2018


Gurobi 7.0.2 (mac64, Python) logging started Mon Sep 24 21:57:45 2018


Gurobi 7.0.2 (mac64, Python) logging started Mon Sep 24 22:06:27 2018


Gurobi 7.0.2 (mac64, Python) logging started Mon Sep 24 22:06:51 2018


Gurobi 7.0.2 (mac64, Python) logging started Mon Sep 24 22:08:22 2018


Gurobi 7.0.2 (mac64, Python) logging started Mon Sep 24 22:08:43 2018


Gurobi 7.0.2 (mac64, Python) logging started Mon Sep 24 22:09:06 2018


Gurobi 7.0.2 (mac64, Python) logging started Mon Sep 24 22:10:27 2018


Gurobi 7.0.2 (mac64, Python) logging started Mon Sep 24 22:11:46 2018


Gurobi 7.0.2 (mac64, Python) logging started Mon Sep 24 22:14:49 2018


Gurobi 7.0.2 (mac64, Python) logging started Mon Sep 24 22:15:28 2018


Gurobi 7.0.2 (mac64, Python) logging started Mon Sep 24 22:15:57 2018


Gurobi 7.0.2 (mac64, Python) logging started Mon Sep 24 22:18:24 2018


Gurobi 7.0.2 (mac64, Python) logging started Mon Sep 24 22:19:06 2018


Gurobi 7.0.2 (mac64, Python) logging started Mon Sep 24 22:23:57 2018


Gurobi 7.0.2 (mac64, Python) logging started Mon Sep 24 22:25:18 2018


Gurobi 7.0.2 (mac64, Python) logging started Mon Sep 24 22:27:03 2018


Gurobi 7.0.2 (mac64, Python) logging started Mon Sep 24 22:29:42 2018


Gurobi 7.0.2 (mac64, Python) logging started Mon Sep 24 22:30:19 2018


Gurobi 7.0.2 (mac64, Python) logging started Mon Sep 24 22:33:00 2018


Gurobi 7.0.2 (mac64, Python) logging started Mon Sep 24 22:34:57 2018


Gurobi 7.0.2 (mac64, Python) logging started Mon Sep 24 22:38:26 2018


Gurobi 7.0.2 (mac64, Python) logging started Mon Sep 24 22:43:05 2018


Gurobi 7.0.2 (mac64, Python) logging started Mon Sep 24 22:43:36 2018


Gurobi 7.0.2 (mac64, Python) logging started Mon Sep 24 22:44:47 2018


Gurobi 7.0.2 (mac64, Python) logging started Mon Sep 24 22:45:54 2018


Gurobi 7.0.2 (mac64, Python) logging started Mon Sep 24 22:46:05 2018


Gurobi 7.0.2 (mac64, Python) logging started Mon Sep 24 22:47:10 2018


Gurobi 7.0.2 (mac64, Python) logging started Sun Sep 30 18:03:52 2018


Gurobi 7.0.2 (mac64, Python) logging started Sun Sep 30 18:05:25 2018


Gurobi 7.0.2 (mac64, Python) logging started Sun Sep 30 18:05:55 2018


Gurobi 7.0.2 (mac64, Python) logging started Sun Sep 30 18:10:09 2018


Gurobi 7.0.2 (mac64, Python) logging started Sun Sep 30 18:11:13 2018


Gurobi 7.0.2 (mac64, Python) logging started Sun Sep 30 18:11:42 2018


Gurobi 7.0.2 (mac64, Python) logging started Sun Sep 30 18:12:18 2018


Gurobi 7.0.2 (mac64, Python) logging started Sun Sep 30 18:12:44 2018


Gurobi 7.0.2 (mac64, Python) logging started Sun Sep 30 18:16:26 2018


Gurobi 7.0.2 (mac64, Python) logging started Sun Sep 30 18:17:34 2018


Gurobi 7.0.2 (mac64, Python) logging started Sun Sep 30 18:18:55 2018


Gurobi 7.0.2 (mac64, Python) logging started Sun Sep 30 18:20:47 2018


Gurobi 7.0.2 (mac64, Python) logging started Sun Sep 30 18:21:45 2018


Gurobi 7.0.2 (mac64, Python) logging started Sun Sep 30 18:24:48 2018


Gurobi 7.0.2 (mac64, Python) logging started Sun Sep 30 18:26:14 2018


Gurobi 7.0.2 (mac64, Python) logging started Sun Sep 30 18:30:04 2018


Gurobi 7.0.2 (mac64, Python) logging started Sun Sep 30 18:30:16 2018


Gurobi 7.0.2 (mac64, Python) logging started Sun Sep 30 18:32:01 2018


Gurobi 7.0.2 (mac64, Python) logging started Sun Sep 30 18:34:01 2018


Gurobi 7.0.2 (mac64, Python) logging started Sun Sep 30 18:35:54 2018


Gurobi 7.0.2 (mac64, Python) logging started Sun Sep 30 18:36:37 2018


Gurobi 7.0.2 (mac64, Python) logging started Sun Sep 30 18:37:02 2018


Gurobi 7.0.2 (mac64, Python) logging started Sun Sep 30 18:37:22 2018


Gurobi 7.0.2 (mac64, Python) logging started Sun Sep 30 18:38:49 2018


Gurobi 7.0.2 (mac64, Python) logging started Sun Sep 30 18:39:05 2018


Gurobi 7.0.2 (mac64, Python) logging started Sun Sep 30 18:39:18 2018


Gurobi 7.0.2 (mac64, Python) logging started Sun Sep 30 18:40:26 2018


Gurobi 7.0.2 (mac64, Python) logging started Sun Sep 30 18:40:42 2018


Gurobi 7.0.2 (mac64, Python) logging started Sun Sep 30 18:40:51 2018


Gurobi 7.0.2 (mac64, Python) logging started Sun Sep 30 18:41:25 2018


Gurobi 7.0.2 (mac64, Python) logging started Sun Sep 30 18:41:41 2018


Gurobi 7.0.2 (mac64, Python) logging started Sun Sep 30 18:43:32 2018


Gurobi 7.0.2 (mac64, Python) logging started Sun Sep 30 18:43:38 2018


Gurobi 7.0.2 (mac64, Python) logging started Sun Sep 30 18:51:17 2018


Gurobi 7.0.2 (mac64, Python) logging started Sun Sep 30 18:51:29 2018


Gurobi 7.0.2 (mac64, Python) logging started Sun Sep 30 18:51:51 2018


Gurobi 7.0.2 (mac64, Python) logging started Sun Sep 30 18:53:32 2018


Gurobi 7.0.2 (mac64, Python) logging started Sun Sep 30 18:54:46 2018


Gurobi 7.0.2 (mac64, Python) logging started Sun Sep 30 18:55:23 2018


Gurobi 7.0.2 (mac64, Python) logging started Sun Sep 30 18:55:59 2018


Gurobi 7.0.2 (mac64, Python) logging started Wed Oct  3 19:34:15 2018


Gurobi 7.0.2 (mac64, Python) logging started Wed Oct  3 19:37:30 2018


Gurobi 7.0.2 (mac64, Python) logging started Wed Oct  3 19:48:31 2018


Gurobi 7.0.2 (mac64, Python) logging started Wed Oct  3 19:49:25 2018


Gurobi 7.0.2 (mac64, Python) logging started Wed Oct  3 19:52:52 2018


Gurobi 7.0.2 (mac64, Python) logging started Wed Oct  3 19:53:22 2018


Gurobi 7.0.2 (mac64, Python) logging started Wed Oct  3 19:53:49 2018


Gurobi 7.0.2 (mac64, Python) logging started Wed Oct  3 19:54:20 2018


Gurobi 7.0.2 (mac64, Python) logging started Wed Oct  3 19:54:50 2018


Gurobi 7.0.2 (mac64, Python) logging started Thu Oct  4 22:30:47 2018


Gurobi 7.0.2 (mac64, Python) logging started Thu Oct  4 22:33:56 2018


Gurobi 7.0.2 (mac64, Python) logging started Thu Oct  4 22:35:14 2018


Gurobi 7.0.2 (mac64, Python) logging started Thu Oct  4 22:41:14 2018


Gurobi 7.0.2 (mac64, Python) logging started Thu Oct  4 22:42:06 2018


Gurobi 7.0.2 (mac64, Python) logging started Thu Oct  4 23:12:19 2018


Gurobi 7.0.2 (mac64, Python) logging started Thu Oct  4 23:13:06 2018


Gurobi 7.0.2 (mac64, Python) logging started Thu Oct  4 23:13:54 2018


Gurobi 7.0.2 (mac64, Python) logging started Thu Oct  4 23:14:21 2018


Gurobi 7.0.2 (mac64, Python) logging started Thu Oct  4 23:14:53 2018


Gurobi 7.0.2 (mac64, Python) logging started Thu Oct  4 23:15:06 2018


Gurobi 7.0.2 (mac64, Python) logging started Thu Oct  4 23:15:31 2018


Gurobi 7.0.2 (mac64, Python) logging started Thu Oct  4 23:35:31 2018


Gurobi 7.0.2 (mac64, Python) logging started Thu Oct  4 23:37:04 2018


Gurobi 7.0.2 (mac64, Python) logging started Thu Oct  4 23:37:34 2018


Gurobi 7.0.2 (mac64, Python) logging started Thu Oct  4 23:38:58 2018


Gurobi 7.0.2 (mac64, Python) logging started Thu Oct  4 23:39:49 2018


Gurobi 7.0.2 (mac64, Python) logging started Thu Oct  4 23:41:17 2018


Gurobi 7.0.2 (mac64, Python) logging started Sat Oct  6 16:12:18 2018


Gurobi 7.0.2 (mac64, Python) logging started Sat Oct  6 16:13:05 2018


Gurobi 7.0.2 (mac64, Python) logging started Sat Oct  6 16:14:27 2018


Gurobi 7.0.2 (mac64, Python) logging started Sat Oct  6 16:15:23 2018


Gurobi 7.0.2 (mac64, Python) logging started Sat Oct  6 16:16:08 2018


Gurobi 7.0.2 (mac64, Python) logging started Sat Oct  6 16:20:43 2018


Gurobi 7.0.2 (mac64, Python) logging started Sat Oct  6 16:23:00 2018


Gurobi 7.0.2 (mac64, Python) logging started Sat Oct  6 16:23:31 2018


Gurobi 7.0.2 (mac64, Python) logging started Sat Oct  6 16:24:00 2018


Gurobi 7.0.2 (mac64, Python) logging started Sat Oct  6 16:25:15 2018


Gurobi 7.0.2 (mac64, Python) logging started Sat Oct  6 16:26:10 2018


Gurobi 7.0.2 (mac64, Python) logging started Sat Oct  6 16:27:04 2018


Gurobi 7.0.2 (mac64, Python) logging started Sat Oct  6 16:27:37 2018


Gurobi 7.0.2 (mac64, Python) logging started Sat Oct  6 16:28:10 2018


Gurobi 7.0.2 (mac64, Python) logging started Sat Oct  6 16:29:18 2018


Gurobi 7.0.2 (mac64, Python) logging started Sat Oct  6 16:29:59 2018


Gurobi 7.0.2 (mac64, Python) logging started Sat Oct  6 16:30:27 2018


Gurobi 7.0.2 (mac64, Python) logging started Sat Oct  6 16:35:50 2018


Gurobi 7.0.2 (mac64, Python) logging started Sat Oct  6 16:38:06 2018


Gurobi 7.0.2 (mac64, Python) logging started Sat Oct  6 16:38:55 2018


Gurobi 7.0.2 (mac64, Python) logging started Sat Oct  6 16:41:26 2018


Gurobi 7.0.2 (mac64, Python) logging started Sat Oct  6 16:46:28 2018


Gurobi 7.0.2 (mac64, Python) logging started Sat Oct  6 16:47:10 2018


Gurobi 7.0.2 (mac64, Python) logging started Sat Oct  6 16:47:39 2018


Gurobi 7.0.2 (mac64, Python) logging started Sat Oct  6 16:58:18 2018


Gurobi 7.0.2 (mac64, Python) logging started Sat Oct  6 16:59:19 2018


Gurobi 7.0.2 (mac64, Python) logging started Sat Oct  6 17:01:10 2018


Gurobi 7.0.2 (mac64, Python) logging started Sat Oct  6 17:10:29 2018


Gurobi 7.0.2 (mac64, Python) logging started Sat Oct  6 17:17:41 2018


Gurobi 7.0.2 (mac64, Python) logging started Sat Oct  6 17:21:29 2018


Gurobi 7.0.2 (mac64, Python) logging started Sat Oct  6 17:22:01 2018


Gurobi 7.0.2 (mac64, Python) logging started Sat Oct  6 17:25:37 2018


Gurobi 7.0.2 (mac64, Python) logging started Sat Oct  6 17:40:33 2018


Gurobi 7.0.2 (mac64, Python) logging started Sat Oct  6 17:40:54 2018


Gurobi 7.0.2 (mac64, Python) logging started Sat Oct  6 17:41:23 2018


Gurobi 7.0.2 (mac64, Python) logging started Sat Oct  6 17:44:13 2018


Gurobi 7.0.2 (mac64, Python) logging started Sat Oct  6 17:44:50 2018


Gurobi 7.0.2 (mac64, Python) logging started Sat Oct  6 18:16:05 2018


Gurobi 7.0.2 (mac64, Python) logging started Sat Oct  6 18:18:34 2018


Gurobi 7.0.2 (mac64, Python) logging started Sat Oct  6 18:22:57 2018


Gurobi 7.0.2 (mac64, Python) logging started Sat Oct  6 18:23:25 2018


Gurobi 7.0.2 (mac64, Python) logging started Sat Oct  6 18:36:04 2018


Gurobi 7.0.2 (mac64, Python) logging started Sat Oct  6 18:36:51 2018


Gurobi 7.0.2 (mac64, Python) logging started Sat Oct  6 18:41:50 2018


Gurobi 7.0.2 (mac64, Python) logging started Sat Oct  6 18:42:01 2018


Gurobi 7.0.2 (mac64, Python) logging started Sat Oct  6 18:45:35 2018


Gurobi 7.0.2 (mac64, Python) logging started Sat Oct  6 18:49:10 2018


Gurobi 7.0.2 (mac64, Python) logging started Sat Oct  6 18:50:29 2018


Gurobi 7.0.2 (mac64, Python) logging started Sat Oct  6 19:02:50 2018

